(set-logic ALL)
(declare-fun var0 () String)
(assert (str.in_re var0 (re.++ (re.* (re.union (re.+ (re.union (re.+ (re.union (re.* (re.+ (re.* (re.* (str.to_re "0"))))) (re.* (re.union (re.+ (re.+ (str.to_re "11"))) (re.+ (re.* (str.to_re "22"))))))) (re.* (re.+ (re.union (re.+ (re.+ (re.+ (str.to_re "333")))) (re.union (re.* (re.* (str.to_re "4"))) (re.union (re.* (str.to_re "5")) (re.union (str.to_re "66") (str.to_re "7"))))))))) (re.* (re.union (re.union (re.union (re.+ (re.* (re.union (re.* (str.to_re "88")) (re.* (str.to_re "9"))))) (re.union (re.union (re.union (re.* (str.to_re "aa")) (re.+ (str.to_re "b"))) (re.* (re.union (str.to_re "c") (str.to_re "d")))) (re.union (re.union (re.+ (str.to_re "ee")) (re.+ (str.to_re "f"))) (re.* (re.* (str.to_re "gg")))))) (re.union (re.* (re.union (re.union (re.* (str.to_re "hh")) (re.+ (str.to_re "iii"))) (re.+ (re.+ (str.to_re "j"))))) (re.* (re.union (re.* (re.+ (str.to_re "kk"))) (re.union (re.+ (str.to_re "ll")) (re.union (str.to_re "m") (str.to_re "n"))))))) (re.+ (re.* (re.* (re.+ (re.+ (re.union (str.to_re "ooo") (str.to_re "pp"))))))))))) (re.* (re.+ (re.+ (re.* (re.* (re.+ (re.union (re.* (re.* (re.* (str.to_re "qqq")))) (re.* (re.* (re.union (str.to_re "r") (str.to_re "sss"))))))))))))))
(assert (<= 15 (str.len var0)))
(check-sat)